NAME          BLANK   
ROWS
 N  OBJROW
 L  R0000000
COLUMNS
    C0000000  OBJROW     -298.         R0000000  532.        
    C0000001  OBJROW     -978.         R0000000  828.        
    C0000002  OBJROW     -576.         R0000000  783.        
    C0000003  OBJROW     -982.         R0000000  420.        
    C0000004  OBJROW     -862.         R0000000  506.        
    C0000005  OBJROW     -609.         R0000000  714.        
    C0000006  OBJROW     -913.         R0000000  401.        
    C0000007  OBJROW     -747.         R0000000  87.         
    C0000008  OBJROW     -290.         R0000000  358.        
    C0000009  OBJROW     -388.         R0000000  488.        
    C0000010  OBJROW     -47.          R0000000  729.        
    C0000011  OBJROW     -973.         R0000000  355.        
    C0000012  OBJROW     -830.         R0000000  703.        
    C0000013  OBJROW     -997.         R0000000  652.        
    C0000014  OBJROW     -959.         R0000000  634.        
    C0000015  OBJROW     -369.         R0000000  711.        
    C0000016  OBJROW     -409.         R0000000  503.        
    C0000017  OBJROW     -737.         R0000000  21.         
    C0000018  OBJROW     -513.         R0000000  221.        
    C0000019  OBJROW     -752.         R0000000  509.        
RHS
    RHS       R0000000  14458.      
BOUNDS
 BV BOUND     C0000000  1.          
 BV BOUND     C0000001  1.          
 BV BOUND     C0000002  1.          
 BV BOUND     C0000003  1.          
 BV BOUND     C0000004  1.          
 BV BOUND     C0000005  1.          
 BV BOUND     C0000006  1.          
 BV BOUND     C0000007  1.          
 BV BOUND     C0000008  1.          
 BV BOUND     C0000009  1.          
 BV BOUND     C0000010  1.          
 BV BOUND     C0000011  1.          
 BV BOUND     C0000012  1.          
 BV BOUND     C0000013  1.          
 BV BOUND     C0000014  1.          
 BV BOUND     C0000015  1.          
 BV BOUND     C0000016  1.          
 BV BOUND     C0000017  1.          
 BV BOUND     C0000018  1.          
 BV BOUND     C0000019  1.          
ENDATA
